94 69 47 102 178 74 192 116 8 15 101 156 50 30 96 103 72 111 82 169 22 133 141 117 129 123 35 68 173 166 97 37 108 187 91 48 95 33 132 161 172 113 146 136 7 90 165 138 114 29 112 65 126 70 89 196 162 10 1 86 180 176 151 199 170 189 41 179 66 153 134 127 122 152 119 118 100 6 71 186 55 36 185 24 49 12 31 137 62 164 184 9 182 110 115 181 159 21 54 195 85 57 155 160 39 168 67 17 81 147 45 26 163 32 183 190 52 158 34 194 104 27 106 198 167 73 87 59 121 5 61 88 131 191 53 79 46 76 99 193 19 197 77 139 174 84 144 20 40 0 105 148 188 25 143 175 140 43 2 16 23 58 124 93 75 98 56 128 149 142 13 64 135 51 38 125 42 92 150 83 177 107 145 14 78 130 120 28 157 171 3 18 44 60 4 11 63 154 109 80 

